GLPSOL--GLPK LP/MIP Solver 5.0
Parameter(s) specified in the command line:
 --lp ../modeles/15_74.lp --log 15_74.log
Reading problem data from '../modeles/15_74.lp'...
1171 rows, 2250 columns, 7815 non-zeros
1110 integer variables, all of which are binary
3442 lines were read
GLPK Integer Optimizer 5.0
1171 rows, 2250 columns, 7815 non-zeros
1110 integer variables, all of which are binary
Preprocessing...
1110 constraint coefficient(s) were reduced
1171 rows, 2235 columns, 7800 non-zeros
1110 integer variables, all of which are binary
Scaling...
 A: min|aij| =  2.922e-03  max|aij| =  4.000e+00  ratio =  1.369e+03
GM: min|aij| =  1.644e-01  max|aij| =  6.083e+00  ratio =  3.700e+01
EQ: min|aij| =  2.703e-02  max|aij| =  1.000e+00  ratio =  3.700e+01
2N: min|aij| =  1.562e-02  max|aij| =  1.689e+00  ratio =  1.081e+02
Constructing initial basis...
Size of triangular part is 1171
Solving LP relaxation...
GLPK Simplex Optimizer 5.0
1171 rows, 2235 columns, 7800 non-zeros
      0: obj =   3.000000000e+01 inf =   4.385e+02 (31)
    134: obj =  -7.521039151e-01 inf =   0.000e+00 (0)
*   361: obj =  -3.857357357e+00 inf =   9.602e-15 (0)
OPTIMAL LP SOLUTION FOUND
Integer optimization begins...
Long-step dual simplex will be used
+   361: mip =     not found yet >=              -inf        (1; 0)
+   597: >>>>>  -3.857357357e+00 >=  -3.857357357e+00 < 0.1% (232; 0)
+   597: mip =  -3.857357357e+00 >=     tree is empty   0.0% (0; 463)
INTEGER OPTIMAL SOLUTION FOUND
Time used:   0.4 secs
Memory used: 3.3 Mb (3476563 bytes)
